MLW08
Position Depot: Random
Horizon for Depot: Large
Position of customers: Mixt
Distribution of the demand: Medium
Width of time windows: Wide
Distribution of the service: Large

VEHICLE 
NUMBER 	 CAPACITY 
 8 	 	 104 
 
CUSTOMER
CUST NO. 	 XCOORD.  	 YCOORD. 	 DEMAND 	 READY TIME 	 DUE DATE 	 SERVICE TIME 
 0 	 	 257 	 	 798 	 	 0 	 	 0 	 	 4258 	 	 0 
  1 	 	 892 	 	 673 	 	 8 	 	 2127 	 	 2347 	 	 164 
  2 	 	 668 	 	 730 	 	 79 	 	 3796 	 	 4258 	 	 146 
  3 	 	 908 	 	 976 	 	 54 	 	 2228 	 	 2650 	 	 163 
  4 	 	 847 	 	 993 	 	 10 	 	 496 	 	 897 	 	 196 
  5 	 	 663 	 	 713 	 	 1 	 	 3090 	 	 3562 	 	 188 
  6 	 	 617 	 	 648 	 	 9 	 	 1813 	 	 2098 	 	 163 
  7 	 	 875 	 	 675 	 	 7 	 	 2103 	 	 2397 	 	 158 
  8 	 	 842 	 	 738 	 	 9 	 	 824 	 	 1145 	 	 118 
  9 	 	 589 	 	 809 	 	 7 	 	 3606 	 	 3929 	 	 136 
  10 	 	 819 	 	 621 	 	 7 	 	 3173 	 	 3515 	 	 135 
  11 	 	 868 	 	 666 	 	 7 	 	 1746 	 	 2075 	 	 147 
  12 	 	 714 	 	 691 	 	 9 	 	 175 	 	 516 	 	 155 
  13 	 	 825 	 	 660 	 	 69 	 	 2050 	 	 2391 	 	 140 
  14 	 	 701 	 	 628 	 	 5 	 	 802 	 	 1085 	 	 147 
  15 	 	 576 	 	 779 	 	 95 	 	 2896 	 	 3129 	 	 170 
  16 	 	 737 	 	 695 	 	 8 	 	 3282 	 	 3677 	 	 137 
  17 	 	 843 	 	 585 	 	 3 	 	 3130 	 	 3445 	 	 120 
  18 	 	 939 	 	 663 	 	 9 	 	 499 	 	 829 	 	 176 
  19 	 	 895 	 	 932 	 	 7 	 	 1142 	 	 1554 	 	 156 
  20 	 	 900 	 	 687 	 	 7 	 	 875 	 	 1223 	 	 104 
  21 	 	 649 	 	 686 	 	 7 	 	 3000 	 	 3211 	 	 139 
  22 	 	 902 	 	 649 	 	 6 	 	 524 	 	 728 	 	 109 
  23 	 	 953 	 	 888 	 	 7 	 	 3067 	 	 3431 	 	 145 
  24 	 	 926 	 	 891 	 	 8 	 	 2120 	 	 2342 	 	 190 
  25 	 	 834 	 	 977 	 	 9 	 	 366 	 	 664 	 	 144 
  26 	 	 390 	 	 324 	 	 4 	 	 163 	 	 605 	 	 136 
  27 	 	 548 	 	 832 	 	 53 	 	 887 	 	 1347 	 	 178 
  28 	 	 608 	 	 750 	 	 81 	 	 1124 	 	 1409 	 	 109 
  29 	 	 406 	 	 767 	 	 7 	 	 1349 	 	 1662 	 	 195 
  30 	 	 887 	 	 276 	 	 7 	 	 1674 	 	 2093 	 	 101 
  31 	 	 231 	 	 439 	 	 2 	 	 1892 	 	 2328 	 	 156 
  32 	 	 320 	 	 800 	 	 6 	 	 3405 	 	 3900 	 	 155 
  33 	 	 585 	 	 831 	 	 2 	 	 2764 	 	 3032 	 	 148 
  34 	 	 569 	 	 307 	 	 84 	 	 177 	 	 639 	 	 157 
  35 	 	 513 	 	 383 	 	 8 	 	 419 	 	 640 	 	 132 
  36 	 	 664 	 	 969 	 	 7 	 	 231 	 	 485 	 	 166 
  37 	 	 732 	 	 53 	 	 9 	 	 640 	 	 971 	 	 135 
  38 	 	 320 	 	 228 	 	 8 	 	 3475 	 	 3880 	 	 120 
  39 	 	 295 	 	 547 	 	 6 	 	 3664 	 	 4105 	 	 178 
  40 	 	 947 	 	 757 	 	 4 	 	 2263 	 	 2599 	 	 186 
  41 	 	 97 	 	 18 	 	 8 	 	 1257 	 	 1700 	 	 180 
  42 	 	 816 	 	 484 	 	 6 	 	 2245 	 	 2494 	 	 196 
  43 	 	 174 	 	 746 	 	 9 	 	 1565 	 	 2037 	 	 158 
  44 	 	 384 	 	 104 	 	 5 	 	 485 	 	 776 	 	 161 
  45 	 	 628 	 	 962 	 	 3 	 	 3092 	 	 3378 	 	 139 
  46 	 	 285 	 	 82 	 	 5 	 	 485 	 	 815 	 	 115 
  47 	 	 65 	 	 78 	 	 2 	 	 2086 	 	 2455 	 	 111 
  48 	 	 211 	 	 668 	 	 63 	 	 3455 	 	 3876 	 	 179 
  49 	 	 559 	 	 679 	 	 10 	 	 2110 	 	 2393 	 	 122 
  50 	 	 729 	 	 752 	 	 5 	 	 1990 	 	 2243 	 	 159 
 